NAME p2m2p1m1p0n100
ROWS
 N  OBJ
 E  R0      
COLUMNS
    C0        OBJ       6567
    C0        R0        6567
    C1        OBJ       6563
    C1        R0        6563
    C2        OBJ       14353
    C2        R0        14353
    C3        OBJ       11135
    C3        R0        11135
    C4        OBJ       6562
    C4        R0        6562
    C5        OBJ       9785
    C5        R0        9785
    C6        OBJ       8174
    C6        R0        8174
    C7        OBJ       6563
    C7        R0        6563
    C8        OBJ       12741
    C8        R0        12741
    C9        OBJ       8176
    C9        R0        8176
    C10       OBJ       12740
    C10       R0        12740
    C11       OBJ       11136
    C11       R0        11136
    C12       OBJ       12744
    C12       R0        12744
    C13       OBJ       8176
    C13       R0        8176
    C14       OBJ       9783
    C14       R0        9783
    C15       OBJ       12742
    C15       R0        12742
    C16       OBJ       11135
    C16       R0        11135
    C17       OBJ       12745
    C17       R0        12745
    C18       OBJ       14352
    C18       R0        14352
    C19       OBJ       9782
    C19       R0        9782
    C20       OBJ       6565
    C20       R0        6565
    C21       OBJ       11136
    C21       R0        11136
    C22       OBJ       6563
    C22       R0        6563
    C23       OBJ       12743
    C23       R0        12743
    C24       OBJ       14350
    C24       R0        14350
    C25       OBJ       11134
    C25       R0        11134
    C26       OBJ       8176
    C26       R0        8176
    C27       OBJ       12740
    C27       R0        12740
    C28       OBJ       6563
    C28       R0        6563
    C29       OBJ       9782
    C29       R0        9782
    C30       OBJ       12743
    C30       R0        12743
    C31       OBJ       14352
    C31       R0        14352
    C32       OBJ       12741
    C32       R0        12741
    C33       OBJ       6566
    C33       R0        6566
    C34       OBJ       12743
    C34       R0        12743
    C35       OBJ       6564
    C35       R0        6564
    C36       OBJ       9785
    C36       R0        9785
    C37       OBJ       9782
    C37       R0        9782
    C38       OBJ       12741
    C38       R0        12741
    C39       OBJ       9782
    C39       R0        9782
    C40       OBJ       14350
    C40       R0        14350
    C41       OBJ       11133
    C41       R0        11133
    C42       OBJ       6562
    C42       R0        6562
    C43       OBJ       11135
    C43       R0        11135
    C44       OBJ       8176
    C44       R0        8176
    C45       OBJ       9781
    C45       R0        9781
    C46       OBJ       6562
    C46       R0        6562
    C47       OBJ       11135
    C47       R0        11135
    C48       OBJ       8175
    C48       R0        8175
    C49       OBJ       12745
    C49       R0        12745
    C50       OBJ       11133
    C50       R0        11133
    C51       OBJ       6566
    C51       R0        6566
    C52       OBJ       11135
    C52       R0        11135
    C53       OBJ       11132
    C53       R0        11132
    C54       OBJ       12743
    C54       R0        12743
    C55       OBJ       12743
    C55       R0        12743
    C56       OBJ       14349
    C56       R0        14349
    C57       OBJ       9784
    C57       R0        9784
    C58       OBJ       12740
    C58       R0        12740
    C59       OBJ       9783
    C59       R0        9783
    C60       OBJ       8174
    C60       R0        8174
    C61       OBJ       9785
    C61       R0        9785
    C62       OBJ       6567
    C62       R0        6567
    C63       OBJ       8176
    C63       R0        8176
    C64       OBJ       8175
    C64       R0        8175
    C65       OBJ       8174
    C65       R0        8174
    C66       OBJ       8174
    C66       R0        8174
    C67       OBJ       6564
    C67       R0        6564
    C68       OBJ       11135
    C68       R0        11135
    C69       OBJ       6564
    C69       R0        6564
    C70       OBJ       9781
    C70       R0        9781
    C71       OBJ       6565
    C71       R0        6565
    C72       OBJ       12740
    C72       R0        12740
    C73       OBJ       14353
    C73       R0        14353
    C74       OBJ       8176
    C74       R0        8176
    C75       OBJ       11132
    C75       R0        11132
    C76       OBJ       14350
    C76       R0        14350
    C77       OBJ       8172
    C77       R0        8172
    C78       OBJ       14353
    C78       R0        14353
    C79       OBJ       8175
    C79       R0        8175
    C80       OBJ       8171
    C80       R0        8171
    C81       OBJ       14353
    C81       R0        14353
    C82       OBJ       9783
    C82       R0        9783
    C83       OBJ       8175
    C83       R0        8175
    C84       OBJ       6567
    C84       R0        6567
    C85       OBJ       8173
    C85       R0        8173
    C86       OBJ       9783
    C86       R0        9783
    C87       OBJ       6564
    C87       R0        6564
    C88       OBJ       9781
    C88       R0        9781
    C89       OBJ       12742
    C89       R0        12742
    C90       OBJ       14353
    C90       R0        14353
    C91       OBJ       11133
    C91       R0        11133
    C92       OBJ       9783
    C92       R0        9783
    C93       OBJ       11132
    C93       R0        11132
    C94       OBJ       12743
    C94       R0        12743
    C95       OBJ       12743
    C95       R0        12743
    C96       OBJ       12740
    C96       R0        12740
    C97       OBJ       9782
    C97       R0        9782
    C98       OBJ       9782
    C98       R0        9782
    C99       OBJ       14354
    C99       R0        14354
    C100      R0        -1
RHS
    RHS1      R0        80424
BOUNDS
 UP BND1      C0        1
 UP BND1      C1        1
 UP BND1      C2        1
 UP BND1      C3        1
 UP BND1      C4        1
 UP BND1      C5        1
 UP BND1      C6        1
 UP BND1      C7        1
 UP BND1      C8        1
 UP BND1      C9        1
 UP BND1      C10       1
 UP BND1      C11       1
 UP BND1      C12       1
 UP BND1      C13       1
 UP BND1      C14       1
 UP BND1      C15       1
 UP BND1      C16       1
 UP BND1      C17       1
 UP BND1      C18       1
 UP BND1      C19       1
 UP BND1      C20       1
 UP BND1      C21       1
 UP BND1      C22       1
 UP BND1      C23       1
 UP BND1      C24       1
 UP BND1      C25       1
 UP BND1      C26       1
 UP BND1      C27       1
 UP BND1      C28       1
 UP BND1      C29       1
 UP BND1      C30       1
 UP BND1      C31       1
 UP BND1      C32       1
 UP BND1      C33       1
 UP BND1      C34       1
 UP BND1      C35       1
 UP BND1      C36       1
 UP BND1      C37       1
 UP BND1      C38       1
 UP BND1      C39       1
 UP BND1      C40       1
 UP BND1      C41       1
 UP BND1      C42       1
 UP BND1      C43       1
 UP BND1      C44       1
 UP BND1      C45       1
 UP BND1      C46       1
 UP BND1      C47       1
 UP BND1      C48       1
 UP BND1      C49       1
 UP BND1      C50       1
 UP BND1      C51       1
 UP BND1      C52       1
 UP BND1      C53       1
 UP BND1      C54       1
 UP BND1      C55       1
 UP BND1      C56       1
 UP BND1      C57       1
 UP BND1      C58       1
 UP BND1      C59       1
 UP BND1      C60       1
 UP BND1      C61       1
 UP BND1      C62       1
 UP BND1      C63       1
 UP BND1      C64       1
 UP BND1      C65       1
 UP BND1      C66       1
 UP BND1      C67       1
 UP BND1      C68       1
 UP BND1      C69       1
 UP BND1      C70       1
 UP BND1      C71       1
 UP BND1      C72       1
 UP BND1      C73       1
 UP BND1      C74       1
 UP BND1      C75       1
 UP BND1      C76       1
 UP BND1      C77       1
 UP BND1      C78       1
 UP BND1      C79       1
 UP BND1      C80       1
 UP BND1      C81       1
 UP BND1      C82       1
 UP BND1      C83       1
 UP BND1      C84       1
 UP BND1      C85       1
 UP BND1      C86       1
 UP BND1      C87       1
 UP BND1      C88       1
 UP BND1      C89       1
 UP BND1      C90       1
 UP BND1      C91       1
 UP BND1      C92       1
 UP BND1      C93       1
 UP BND1      C94       1
 UP BND1      C95       1
 UP BND1      C96       1
 UP BND1      C97       1
 UP BND1      C98       1
 UP BND1      C99       1
 UP BND1      C100      1
ENDATA
